32	0

0	1	2
2	1	3
7	1	4
6	1	5
3	1	6
2	1	7
8	1	8
9	1	9
10	1	10
9	1	11
9	1	12
7	1	13
3	1	14
4	1	15
6	1	16
8	1	17
6	1	18
5	1	19
4	1	20
4	1	21
2	1	22
3	1	23
8	1	24
8	1	25
8	1	26
3	1	27
2	1	28
1	1	29
1	1	30
1	1	31
1	1	32
0	0
